c Random generated cnf formula, satisfiable: true
p cnf 10 50
5 6 2 0
-5 9 -2 0
7 3 6 0
3 1 -9 0
1 -7 6 0
-2 -6 7 0
-9 3 2 0
-9 -8 -3 0
-9 -8 -4 0
10 -3 2 0
-6 -5 3 0
-9 -4 -5 0
-10 -9 -1 0
-10 7 -4 0
-4 10 5 0
6 8 4 0
9 3 -10 0
7 -2 -6 0
-1 -5 4 0
7 3 -6 0
6 2 7 0
4 -10 -1 0
2 -9 -5 0
-5 -4 -6 0
2 -6 -9 0
9 8 -2 0
-3 4 -6 0
5 -3 9 0
9 10 1 0
-10 -7 5 0
-8 -10 5 0
6 4 -7 0
7 2 5 0
-4 8 -9 0
5 2 -8 0
3 -2 -4 0
-5 8 -6 0
-2 7 5 0
-8 1 7 0
-4 5 -7 0
1 3 9 0
-3 8 -9 0
-3 -8 -4 0
6 -2 10 0
-8 10 -2 0
-8 1 9 0
-4 10 2 0
-8 2 -6 0
-6 10 -7 0
1 2 -7 0
